p wcnf 91 137 10
5 -1 0
5 -2 0
5 -3 0
5 -4 0
5 -5 0
5 -6 0
5 -7 0
5 -8 0
5 -9 0
5 -10 0
5 -11 0
5 -12 0
5 -13 0
5 -14 0
5 -15 0
5 -16 0
5 -17 0
5 -18 0
5 -19 0
5 -20 0
5 -21 0
5 -22 0
5 -23 0
5 -24 0
5 -25 0
5 -26 0
5 -27 0
5 -28 0
5 -29 0
5 -30 0
5 -31 0
5 -32 0
5 -33 0
5 -34 0
5 -35 0
5 -36 0
5 -37 0
5 -38 0
5 -39 0
5 -40 0
5 -41 0
5 -42 0
5 -43 0
5 -44 0
5 -45 0
5 -46 0
5 -47 0
5 -48 0
5 -49 0
5 -50 0
5 -51 0
5 -52 0
5 -53 0
5 -54 0
5 -55 0
5 -56 0
5 -57 0
5 -58 0
5 -59 0
5 -60 0
5 -61 0
5 -62 0
5 -63 0
5 -64 0
5 -65 0
5 -66 0
5 -67 0
5 -68 0
5 -69 0
5 -70 0
5 -71 0
5 -72 0
5 -73 0
5 -74 0
5 -75 0
5 -76 0
5 -77 0
5 -78 0
5 -79 0
5 -80 0
5 -81 0
5 -82 0
5 -83 0
5 -84 0
5 -85 0
5 -86 0
5 -87 0
5 -88 0
5 -89 0
5 -90 0
10 1 2 3 4 5 6 7 8 9 10 11 12 13 14 15 16 17 18 19 20 21 22 23 24 25 26 27 28 29 30 31 32 33 34 35 36 37 38 39 40 41 42 43 44 45 46 47 48 49 50 51 52 53 54 55 56 57 58 59 60 61 62 63 64 65 66 67 68 69 70 71 72 73 74 75 76 77 78 79 80 81 82 83 84 85 86 87 88 89 90 0
10 91 0
x 10 1 46 48 50 51 52 54 55 56 58 59 60 64 66 68 69 70 71 72 74 75 76 79 80 81 82 85 90 91 0
x 10 2 46 47 49 50 51 53 54 55 56 62 68 69 70 72 73 75 76 78 79 80 83 85 86 87 88 90 91 0
x 10 3 47 49 50 59 61 62 63 64 69 70 72 73 74 79 82 84 85 87 90 91 0
x 10 4 46 48 49 51 52 53 61 62 63 64 65 66 68 69 70 72 73 75 76 78 83 86 87 90 91 0
x 10 5 46 47 50 55 58 59 60 62 63 64 67 68 73 78 80 82 86 90 91 0
x 10 6 46 47 48 50 51 53 55 56 58 59 60 63 64 66 68 69 70 71 75 78 79 80 81 83 84 85 91 0
x 10 7 46 48 52 56 57 58 60 61 62 63 64 67 69 72 74 78 79 80 81 82 84 86 88 91 0
x 10 8 46 47 52 55 57 60 62 63 69 70 73 75 76 77 78 79 80 81 82 83 86 87 89 90 91 0
x 10 9 46 50 51 52 58 59 60 62 63 65 68 69 71 73 75 82 90 91 0
x 10 10 47 49 52 53 54 58 60 61 62 65 67 69 70 77 80 81 83 87 88 89 91 0
x 10 11 47 49 50 52 55 58 59 61 62 67 68 71 76 78 79 80 82 84 85 86 87 91 0
x 10 12 46 54 55 56 61 63 65 67 69 70 72 74 76 79 80 81 84 86 87 89 91 0
x 10 13 47 49 50 53 54 56 57 59 61 62 64 66 70 73 75 76 78 82 83 84 91 0
x 10 14 47 50 51 52 53 55 58 59 62 68 70 73 79 80 81 82 83 85 86 87 88 90 91 0
x 10 15 46 51 52 53 55 57 58 60 61 63 65 67 70 71 72 75 77 78 79 85 87 89 91 0
x 10 16 47 49 51 52 54 55 56 57 59 60 61 63 64 65 66 69 73 75 76 77 81 82 84 85 87 89 91 0
x 10 17 46 49 50 52 54 56 57 58 60 61 63 65 66 67 69 70 71 72 75 77 80 81 86 87 89 91 0
x 10 18 48 49 50 51 54 58 59 64 65 67 68 69 70 71 72 78 79 80 81 82 85 86 89 91 0
x 10 19 49 50 51 52 55 59 60 61 62 63 68 71 73 74 75 77 78 80 81 82 84 85 86 87 89 90 91 0
x 10 20 46 48 49 50 51 56 58 60 63 66 67 68 69 70 71 75 77 78 79 82 84 85 87 88 90 91 0
x 10 21 46 47 49 51 52 57 58 60 61 62 63 64 66 68 70 71 72 74 77 79 80 83 84 91 0
x 10 22 47 50 52 53 54 57 58 59 60 63 64 65 67 68 73 74 77 78 79 81 88 89 91 0
x 10 23 46 53 56 57 65 66 68 69 70 71 72 73 74 75 78 79 82 85 86 91 0
x 10 24 46 49 51 52 53 54 55 57 58 60 64 65 66 67 68 70 75 80 82 83 87 89 91 0
x 10 25 46 51 52 54 57 58 59 60 61 62 67 68 72 75 76 81 82 83 87 88 89 90 91 0
x 10 26 49 54 55 56 57 58 59 60 61 64 65 66 67 69 72 74 76 78 79 80 82 83 84 85 86 89 91 0
x 10 27 46 48 50 53 54 56 59 60 61 62 66 67 69 72 75 76 79 83 88 89 90 91 0
x 10 28 46 49 50 52 55 56 59 61 65 66 67 70 71 72 74 76 78 79 80 84 85 86 88 89 90 91 0
x 10 29 46 47 50 51 53 55 60 61 62 63 70 72 75 77 81 84 85 86 87 90 91 0
x 10 30 47 51 53 56 57 58 59 60 61 64 65 66 67 68 72 73 75 76 79 82 83 88 89 90 91 0
x 10 31 48 49 51 53 56 59 62 63 64 65 66 67 69 71 74 76 77 79 81 83 84 85 86 88 89 91 0
x 10 32 49 51 53 54 55 56 57 59 60 65 66 67 68 73 74 75 77 79 80 83 84 86 89 90 91 0
x 10 33 46 47 48 49 53 54 55 58 61 63 64 69 71 72 73 75 76 77 79 81 83 85 87 89 91 0
x 10 34 47 49 51 53 54 56 58 62 63 64 67 68 70 72 74 76 79 82 83 84 89 91 0
x 10 35 46 47 52 55 62 64 66 68 69 71 74 79 83 84 85 86 87 89 91 0
x 10 36 46 47 49 54 57 58 60 61 62 65 66 67 70 72 75 76 77 78 79 81 82 83 84 86 87 89 91 0
x 10 37 47 48 49 51 54 55 56 58 59 60 62 67 69 71 73 74 76 78 80 89 90 91 0
x 10 38 46 48 49 50 52 53 54 55 59 60 62 63 65 68 70 72 73 74 75 77 79 81 82 84 86 90 91 0
x 10 39 47 48 50 52 53 54 56 59 64 65 67 68 70 75 76 78 79 81 82 85 87 88 91 0
x 10 40 51 52 53 54 56 57 58 64 67 71 74 75 76 77 78 86 87 88 89 90 91 0
x 10 41 47 51 52 54 57 58 61 63 65 67 69 70 73 76 78 79 81 82 86 87 88 91 0
x 10 42 47 48 49 50 51 55 57 60 62 63 65 66 70 72 74 75 76 77 81 82 83 84 85 87 88 89 90 91 0
x 10 43 50 52 53 55 58 63 64 69 74 75 76 77 79 80 83 84 87 88 91 0
x 10 44 46 51 55 56 58 59 60 63 65 67 69 71 73 76 81 87 88 91 0
x 10 45 48 52 53 59 61 62 68 69 70 71 72 73 74 75 76 77 81 82 83 84 86 88 89 90 91 0
